
Gurobi 9.1.1 (mac64, gurobi_cl) logging started Tue Oct 17 14:37:54 2023


Gurobi 9.1.1 (mac64, gurobi_cl) logging started Tue Oct 17 14:38:45 2023


Gurobi 9.1.1 (mac64, gurobi_cl) logging started Tue Oct 17 14:38:55 2023


Gurobi 9.1.1 (mac64, gurobi_cl) logging started Tue Oct 17 14:39:45 2023


Gurobi 9.1.1 (mac64, gurobi_cl) logging started Tue Oct 17 14:47:06 2023

